<?xml version="1.0" encoding="UTF-8"?><osil xmlns="os.optimizationservices.org" xmlns:xsi="http://www.w3.org/2001/XMLSchema-instance" xsi:schemaLocation="os.optimizationservices.org http://www.optimizationservices.org/schemas/2.0/OSiL.xsd"><instanceHeader><name>st_testgr3</name></instanceHeader><instanceData><variables numberOfVariables="20"><var name="i1" type="I" ub="100"/><var name="i2" type="I" ub="100"/><var name="i3" type="I" ub="100"/><var name="i4" type="I" ub="100"/><var name="i5" type="I" ub="100"/><var name="i6" type="I" ub="100"/><var name="i7" type="I" ub="100"/><var name="i8" type="I" ub="100"/><var name="i9" type="I" ub="100"/><var name="i10" type="I" ub="100"/><var name="i11" type="I" ub="100"/><var name="i12" type="I" ub="100"/><var name="i13" type="I" ub="100"/><var name="i14" type="I" ub="100"/><var name="i15" type="I" ub="100"/><var name="i16" type="I" ub="100"/><var name="i17" type="I" ub="100"/><var name="i18" type="I" ub="100"/><var name="i19" type="I" ub="100"/><var name="i20" type="I" ub="100"/></variables><objectives><obj maxOrMin="min" name="defObj_objvar" numberOfObjCoef="20"><coef idx="0">-5.83e-2</coef><coef idx="1">-.2318</coef><coef idx="2">1.08e-2</coef><coef idx="3">-.1634</coef><coef idx="4">-.138</coef><coef idx="5">.357</coef><coef idx="6">-.1953</coef><coef idx="7">.361</coef><coef idx="8">-.1824</coef><coef idx="9">.162</coef><coef idx="10">-.4346</coef><coef idx="11">-.1054</coef><coef idx="12">.2376</coef><coef idx="13">-5.9e-3</coef><coef idx="14">.189</coef><coef idx="15">-2.52e-2</coef><coef idx="16">-9.9e-2</coef><coef idx="17">-.3604</coef><coef idx="18">2.2e-2</coef><coef idx="19">-.3294</coef></obj></objectives><constraints numberOfConstraints="20"><con name="e1" ub="2.2e2"/><con name="e2" ub="175"/><con name="e3" ub="215"/><con name="e4" ub="195"/><con name="e5" ub="145"/><con name="e6" ub="185"/><con name="e7" ub="225"/><con name="e8" ub="215"/><con name="e9" ub="175"/><con name="e10" ub="155"/><con name="e11" ub="2.1e2"/><con name="e12" ub="1.9e2"/><con name="e13" ub="205"/><con name="e14" ub="245"/><con name="e15" ub="1.6e2"/><con name="e16" ub="225"/><con name="e17" ub="195"/><con name="e18" ub="2.4e2"/><con name="e19" ub="215"/><con name="e20" ub="200"/></constraints><linearConstraintCoefficients numberOfValues="161"><start><el mult="3" incr="8">0</el><el mult="4" incr="7">23</el><el>52</el><el>60</el><el mult="5" incr="7">69</el><el>105</el><el mult="5" incr="7">113</el><el>161</el></start><colIdx><el>0</el><el>5</el><el>6</el><el mult="3" incr="1">11</el><el>18</el><el>19</el><el>0</el><el>1</el><el>6</el><el>7</el><el mult="3" incr="1">12</el><el>19</el><el>1</el><el>2</el><el>7</el><el>8</el><el mult="3" incr="1">13</el><el>2</el><el>3</el><el>8</el><el>9</el><el mult="3" incr="1">14</el><el>3</el><el>4</el><el>9</el><el>10</el><el mult="3" incr="1">15</el><el>4</el><el>5</el><el>10</el><el>11</el><el mult="3" incr="1">16</el><el>0</el><el>5</el><el>6</el><el>11</el><el>12</el><el mult="3" incr="1">17</el><el>0</el><el>1</el><el>6</el><el>7</el><el>12</el><el>13</el><el>18</el><el>19</el><el mult="3" incr="1">0</el><el>7</el><el>8</el><el>13</el><el>14</el><el>18</el><el>19</el><el mult="3" incr="1">1</el><el>8</el><el>9</el><el>14</el><el>15</el><el mult="3" incr="1">2</el><el>9</el><el>10</el><el>15</el><el>16</el><el mult="3" incr="1">3</el><el>10</el><el>11</el><el>16</el><el>17</el><el mult="3" incr="1">4</el><el>11</el><el>12</el><el>17</el><el>18</el><el>0</el><el mult="3" incr="1">5</el><el>12</el><el>13</el><el>18</el><el>19</el><el>0</el><el>1</el><el mult="3" incr="1">6</el><el>13</el><el>14</el><el>19</el><el>1</el><el>2</el><el mult="3" incr="1">7</el><el>14</el><el>15</el><el>2</el><el>3</el><el mult="3" incr="1">8</el><el>15</el><el>16</el><el>3</el><el>4</el><el mult="3" incr="1">9</el><el>16</el><el>17</el><el>4</el><el>5</el><el mult="3" incr="1">10</el><el>17</el><el>18</el><el mult="20" incr="1">0</el></colIdx><value><el>8</el><el>5</el><el>4</el><el mult="2">6</el><el>9</el><el>5</el><el>1</el><el>3</el><el>4</el><el>3</el><el>7</el><el>4</el><el>9</el><el>3</el><el mult="2">2</el><el>1</el><el>6</el><el>8</el><el mult="2">9</el><el>8</el><el>7</el><el>1</el><el>7</el><el>9</el><el>2</el><el>4</el><el>9</el><el mult="2">4</el><el>1</el><el>3</el><el>7</el><el>2</el><el>8</el><el>9</el><el mult="2">5</el><el>7</el><el>1</el><el>4</el><el>6</el><el mult="2">5</el><el>3</el><el>8</el><el>5</el><el mult="2">9</el><el mult="2">1</el><el mult="2">9</el><el>3</el><el>9</el><el>7</el><el>4</el><el>1</el><el>3</el><el>6</el><el>3</el><el>4</el><el>2</el><el>6</el><el>3</el><el>8</el><el mult="2">1</el><el>2</el><el>8</el><el>4</el><el>1</el><el>9</el><el>6</el><el>9</el><el>3</el><el>6</el><el>1</el><el>6</el><el>9</el><el>8</el><el>6</el><el mult="2">3</el><el>6</el><el>3</el><el>8</el><el mult="2">9</el><el>8</el><el>2</el><el>7</el><el>8</el><el>4</el><el>3</el><el>4</el><el>6</el><el>9</el><el>1</el><el>6</el><el>9</el><el>8</el><el>6</el><el>7</el><el>3</el><el>7</el><el>4</el><el>2</el><el>1</el><el>3</el><el>5</el><el>7</el><el>9</el><el>7</el><el>9</el><el>5</el><el>2</el><el mult="2">6</el><el>9</el><el>8</el><el>4</el><el>2</el><el>6</el><el>4</el><el mult="2">5</el><el>7</el><el>8</el><el>9</el><el>8</el><el>6</el><el>7</el><el>5</el><el>6</el><el>2</el><el>8</el><el>6</el><el>9</el><el mult="20">1</el></value></linearConstraintCoefficients><quadraticCoefficients numberOfQuadraticTerms="20"><qTerm idx="-1" idxOne="0" idxTwo="0" coef="5.5e-4"/><qTerm idx="-1" idxOne="1" idxTwo="1" coef="1.9e-3"/><qTerm idx="-1" idxOne="2" idxTwo="2" coef="2e-4"/><qTerm idx="-1" idxOne="3" idxTwo="3" coef="9.5e-4"/><qTerm idx="-1" idxOne="4" idxTwo="4" coef="4.6e-3"/><qTerm idx="-1" idxOne="5" idxTwo="5" coef="3.5e-3"/><qTerm idx="-1" idxOne="6" idxTwo="6" coef="3.15e-3"/><qTerm idx="-1" idxOne="7" idxTwo="7" coef="4.75e-3"/><qTerm idx="-1" idxOne="8" idxTwo="8" coef="4.8e-3"/><qTerm idx="-1" idxOne="9" idxTwo="9" coef="3e-3"/><qTerm idx="-1" idxOne="10" idxTwo="10" coef="2.65e-3"/><qTerm idx="-1" idxOne="11" idxTwo="11" coef="1.7e-3"/><qTerm idx="-1" idxOne="12" idxTwo="12" coef="1.2e-3"/><qTerm idx="-1" idxOne="13" idxTwo="13" coef="2.95e-3"/><qTerm idx="-1" idxOne="14" idxTwo="14" coef="3.15e-3"/><qTerm idx="-1" idxOne="15" idxTwo="15" coef="2.1e-3"/><qTerm idx="-1" idxOne="16" idxTwo="16" coef="2.25e-3"/><qTerm idx="-1" idxOne="17" idxTwo="17" coef="3.4e-3"/><qTerm idx="-1" idxOne="18" idxTwo="18" coef="1e-3"/><qTerm idx="-1" idxOne="19" idxTwo="19" coef="3.05e-3"/></quadraticCoefficients></instanceData></osil>